 vasp.5.4.1 24Jun15 (build May 03 2017 13:41:37) complex

 executed on           IFC91_ompi date 2020.11.04  19:44:25

 INCAR:
 POTCAR:    PAW_PBE Ni 02Aug2007
 POTCAR:    PAW_PBE Br 06Sep2000
 POTCAR:    PAW_PBE Ni 02Aug2007
   VRHFIN =Ni:

   TITEL  = PAW_PBE Ni 02Aug2007
   POMASS =   58.690; ZVAL   =   10.000    mass and valenz
   ENMAX  =  269.532; ENMIN  =  202.149 eV

 POTCAR:    PAW_PBE Br 06Sep2000
   VRHFIN =Br: s2p5

   TITEL  = PAW_PBE Br 06Sep2000
   POMASS =   79.904; ZVAL   =    7.000    mass and valenz
   ENMAX  =  216.285; ENMIN  =  162.214 eV

  PAW_PBE Ni 02Aug2007                  :
  PAW_PBE Br 06Sep2000                  :

 POSCAR: NiBr2
  positions in direct lattice
  velocities in cartesian coordinates
 exchange correlation table for  LEXCH =        8
   RHO(1)=    0.500       N(1)  =     2000
   RHO(2)=  100.500       N(2)  =     4000

 ion  position               nearest neighbor table
   1  0.000  0.000  0.500-   2 2.57   3 2.57   3 2.57   2 2.57   3 2.57   2 2.57
   2  0.667  0.333  0.563-   1 2.57   1 2.57   1 2.57
   3  0.333  0.667  0.437-   1 2.57   1 2.57   1 2.57

  LATTYP: Found a hexagonal cell.
 ALAT       =     3.7000002360
 C/A-ratio  =     6.1629843003

  Lattice vectors:

 A1 = (   3.7000000477,   0.0000000000,   0.0000000000)
 A2 = (  -1.8499993587,   3.2042938687,   0.0000000000)
 A3 = (   0.0000000000,   0.0000000000,  22.8030433655)

Analysis of symmetry for initial positions (statically):
 Subroutine PRICEL returns:
 Original cell was already a primitive cell.

 Routine SETGRP: Setting up the symmetry group for a
 hexagonal supercell.

 Subroutine GETGRP returns: Found 12 space group operations
 (whereof 12 operations were pure point group operations)
 out of a pool of 24 trial point group operations.

The static configuration has the point symmetry D_3d.

Analysis of symmetry for dynamics (positions and initial velocities):
 Subroutine PRICEL returns:
 Original cell was already a primitive cell.

[...]

The dynamic configuration has the point symmetry D_3d.

Analysis of structural, dynamic, and magnetic symmetry:
 Subroutine PRICEL returns:
 Original cell was already a primitive cell.

 Routine SETGRP: Setting up the symmetry group for a
 hexagonal supercell.

 Subroutine GETGRP returns: Found 12 space group operations
 (whereof 12 operations were pure point group operations)
 out of a pool of 24 trial point group operations.

The magnetic configuration has the point symmetry D_3d.

 Subroutine INISYM returns: Found 12 space group operations
 (whereof 12 operations are pure point group operations),
 and found     1 'primitive' translations

 KPOINTS: K-Mesh Generated with KP-Resolved Value

Automatic generation of k-mesh.
Space group operators:
 irot       det(A)        alpha          n_x          n_y          n_z        tau_x        tau_y        tau_z
    1     1.000000     0.000000     1.000000     0.000000     0.000000     0.000000     0.000000     0.000000
    2    -1.000000     0.000000     1.000000     0.000000     0.000000     0.000000     0.000000     0.000000
    3     1.000000   120.000000     0.000000     0.000000    -1.000000     0.000000     0.000000     0.000000
    4    -1.000000   120.000000     0.000000     0.000000    -1.000000     0.000000     0.000000     0.000000
    5     1.000000   120.000000     0.000000     0.000000     1.000000     0.000000     0.000000     0.000000
    6    -1.000000   120.000000     0.000000     0.000000     1.000000     0.000000     0.000000     0.000000
    7     1.000000   180.000000     1.000000    -0.000000     0.000000     0.000000     0.000000     0.000000
    8    -1.000000   180.000000     1.000000    -0.000000     0.000000     0.000000     0.000000     0.000000
    9     1.000000   180.000000     0.500000    -0.866025     0.000000     0.000000     0.000000     0.000000
   10    -1.000000   180.000000     0.500000    -0.866025     0.000000     0.000000     0.000000     0.000000
   11     1.000000   180.000000    -0.500000    -0.866025     0.000000     0.000000     0.000000     0.000000
   12    -1.000000   180.000000    -0.500000    -0.866025     0.000000     0.000000     0.000000     0.000000

 Subroutine IBZKPT returns following result:

 Found     30 irreducible k-points:

 Following reciprocal coordinates:
            Coordinates               Weight
  0.000000  0.000000  0.000000      1.000000
  0.062500  0.000000  0.000000      6.000000
  0.125000  0.000000  0.000000      6.000000
  0.187500  0.000000  0.000000      6.000000
  0.250000  0.000000  0.000000      6.000000
  0.312500  0.000000  0.000000      6.000000
  0.375000  0.000000  0.000000      6.000000
  0.437500 -0.000000  0.000000      6.000000
  0.500000  0.000000  0.000000      3.000000
  0.062500  0.062500  0.000000      6.000000
  0.125000  0.062500  0.000000     12.000000
  0.187500  0.062500  0.000000     12.000000
  0.250000  0.062500  0.000000     12.000000
  0.312500  0.062500  0.000000     12.000000
  0.375000  0.062500  0.000000     12.000000
  0.437500  0.062500  0.000000     12.000000
  0.125000  0.125000  0.000000      6.000000
  0.187500  0.125000  0.000000     12.000000
  0.250000  0.125000  0.000000     12.000000
  0.312500  0.125000  0.000000     12.000000
  0.375000  0.125000  0.000000     12.000000
  0.437500  0.125000  0.000000      6.000000
  0.187500  0.187500  0.000000      6.000000
  0.250000  0.187500  0.000000     12.000000
  0.312500  0.187500  0.000000     12.000000
  0.375000  0.187500  0.000000     12.000000
  0.250000  0.250000  0.000000      6.000000
  0.312500  0.250000  0.000000     12.000000
  0.375000  0.250000  0.000000      6.000000
  0.312500  0.312500  0.000000      6.000000

 Following cartesian coordinates:
            Coordinates               Weight
  0.000000  0.000000  0.000000      1.000000
  0.016892  0.009753  0.000000      6.000000
  0.033784  0.019505  0.000000      6.000000
  0.050676  0.029258  0.000000      6.000000
  0.067568  0.039010  0.000000      6.000000
  0.084459  0.048763  0.000000      6.000000
  0.101351  0.058515  0.000000      6.000000
  0.118243  0.068268  0.000000      6.000000
  0.135135  0.078020  0.000000      3.000000
  0.016892  0.029258  0.000000      6.000000
  0.033784  0.039010  0.000000     12.000000
  0.050676  0.048763  0.000000     12.000000
  0.067568  0.058515  0.000000     12.000000
  0.084459  0.068268  0.000000     12.000000
  0.101351  0.078020  0.000000     12.000000
  0.118243  0.087773  0.000000     12.000000
  0.033784  0.058515  0.000000      6.000000
  0.050676  0.068268  0.000000     12.000000
  0.067568  0.078020  0.000000     12.000000
  0.084459  0.087773  0.000000     12.000000
  0.101351  0.097525  0.000000     12.000000
  0.118243  0.107278  0.000000      6.000000
  0.050676  0.087773  0.000000      6.000000
  0.067568  0.097525  0.000000     12.000000
  0.084459  0.107278  0.000000     12.000000
  0.101351  0.117030  0.000000     12.000000
  0.067568  0.117030  0.000000      6.000000
  0.084459  0.126783  0.000000     12.000000
  0.101351  0.136536  0.000000      6.000000
  0.084459  0.146288  0.000000      6.000000

 TETIRR: Found    136 inequivalent tetrahedra from     1536

 I would recommend the setting:
   dimension x,y,z NGX =    20 NGY =   20 NGZ =  125
 SYSTEM =  unknown system
 POSCAR =  NiBr2

 Startparameter for this run:
   NWRITE =      2    write-flag & timer
   PREC   = normal    normal or accurate (medium, high low for compatibility)
   ISTART =      0    job   : 0-new  1-cont  2-samecut
   ICHARG =     11    charge: 1-file 2-atom 10-const
   ISPIN  =      2    spin polarized calculation?
   LNONCOLLINEAR =      F non collinear calculations
   LSORBIT =      F    spin-orbit coupling
   INIWAV =      1    electr: 0-lowe 1-rand  2-diag
   LASPH  =      F    aspherical Exc in radial PAW
   METAGGA=      F    non-selfconsistent MetaGGA calc.

 Electronic Relaxation 1
   ENCUT  =  500.0 eV  36.75 Ry    6.06 a.u.   6.75  6.75 41.58*2*pi/ulx,y,z
   ENINI  =  500.0     initial cutoff
   ENAUG  =  544.6 eV  augmentation charge cutoff
   NELM   =    300;   NELMIN=  2; NELMDL= -5     # of ELM steps
   EDIFF  = 0.1E-05   stopping-criterion for ELM
   LREAL  =      F    real-space projection
   NLSPLINE    = F    spline interpolate recip. space projectors
   LCOMPAT=      F    compatible to vasp.4.4
   GGA_COMPAT  = T    GGA compatible to vasp.4.4-vasp.4.6
   LMAXPAW     = -100 max onsite density
   LMAXMIX     =    4 max onsite mixed and CHGCAR
   VOSKOWN=      0    Vosko Wilk Nusair interpolation
   ROPT   =    0.00000   0.00000
 Ionic relaxation
   EDIFFG = 0.1E-04   stopping-criterion for IOM
   NSW    =      0    number of steps for IOM
   NBLOCK =      1;   KBLOCK =      1    inner block; outer block
   IBRION =     -1    ionic relax: 0-MD 1-quasi-New 2-CG
   NFREE  =      0    steps in history (QN), initial steepest desc. (CG)
   ISIF   =      2    stress and relaxation
   IWAVPR =     10    prediction:  0-non 1-charg 2-wave 3-comb
   ISYM   =      2    0-nonsym 1-usesym 2-fastsym
   LCORR  =      T    Harris-Foulkes like correction to forces

   POTIM  = 0.5000    time-step for ionic-motion
   TEIN   =    0.0    initial temperature
   TEBEG  =    0.0;   TEEND  =   0.0 temperature during run
   SMASS  =  -3.00    Nose mass-parameter (am)
   estimated Nose-frequenzy (Omega)   =  0.10E-29 period in steps =****** mass=  -0.313E-27a.u.
   SCALEE = 1.0000    scale energy and forces
   NPACO  =    256;   APACO  = 16.0  distance and # of slots for P.C.
   PSTRESS=    0.0 pullay stress

  Mass of Ions in am
   POMASS =  58.69 79.90
  Ionic Valenz
   ZVAL   =  10.00  7.00
  Atomic Wigner-Seitz radii
  virtual crystal weights
   VCA    =   1.00  1.00
   NELECT =      24.0000    total number of electrons
   NUPDOWN=      -1.0000    fix difference up-down

 DOS related values:
   EMIN   =  10.00;   EMAX   =-10.00  energy-range for DOS
   EFERMI =   0.00
   ISMEAR =    -5;   SIGMA  =   0.20  broadening in eV -4-tet -1-fermi 0-gaus

 Electronic relaxation 2 (details)
   IALGO  =     38    algorithm
   LDIAG  =      T    sub-space diagonalisation (order eigenvalues)
   LSUBROT=      F    optimize rotation matrix (better conditioning)
   TURBO    =      0    0=normal 1=particle mesh
   IRESTART =      0    0=no restart 2=restart with 2 vectors
   NREBOOT  =      0    no. of reboots
   NMIN     =      0    reboot dimension
   EREF     =   0.00    reference energy to select bands
   IMIX   =      4    mixing-type and parameters
     AMIX     =   0.40;   BMIX     =  1.00
     AMIX_MAG =   1.60;   BMIX_MAG =  1.00
     AMIN     =   0.10
     WC   =   100.;   INIMIX=   1;  MIXPRE=   1;  MAXMIX= -45

 Intra band minimization:
   WEIMIN = 0.0000     energy-eigenvalue tresh-hold
   EBREAK =  0.12E-07  absolut break condition
   DEPER  =   0.30     relativ break condition

   TIME   =   0.40     timestep for ELM

  volume/ion in A,a.u.               =      90.12       608.14
  Fermi-wavevector in a.u.,A,eV,Ry     =   0.730303  1.380072  7.256560  0.533342
  Thomas-Fermi vector in A             =   1.822239

 Write flags
   LWAVE  =      F    write WAVECAR
   LCHARG =      F    write CHGCAR
[...]
   0.05067568  0.02925761  0.00000000       0.023
   0.06756757  0.03901014  0.00000000       0.023
   0.08445946  0.04876268  0.00000000       0.023
   0.10135135  0.05851521  0.00000000       0.023
   0.11824324  0.06826775  0.00000000       0.023
   0.13513513  0.07802028  0.00000000       0.012
   0.01689189  0.02925761  0.00000000       0.023
   0.03378378  0.03901015  0.00000000       0.047
   0.05067568  0.04876268  0.00000000       0.047
   0.06756757  0.05851522  0.00000000       0.047
   0.08445946  0.06826775  0.00000000       0.047
   0.10135135  0.07802029  0.00000000       0.047
   0.11824324  0.08777282  0.00000000       0.047
   0.03378378  0.05851523  0.00000000       0.023
   0.05067568  0.06826776  0.00000000       0.047
   0.06756757  0.07802030  0.00000000       0.047
   0.08445946  0.08777283  0.00000000       0.047
   0.10135135  0.09752537  0.00000000       0.047
   0.11824324  0.10727790  0.00000000       0.023
   0.05067568  0.08777284  0.00000000       0.023
   0.06756757  0.09752537  0.00000000       0.047
   0.08445946  0.10727791  0.00000000       0.047
   0.10135135  0.11703044  0.00000000       0.047
   0.06756757  0.11703045  0.00000000       0.023
   0.08445946  0.12678299  0.00000000       0.047
   0.10135135  0.13653552  0.00000000       0.023
   0.08445946  0.14628806  0.00000000       0.023

 k-points in reciprocal lattice and weights: K-Mesh Generated with KP-Resolved Value
   0.00000000  0.00000000  0.00000000       0.004
   0.06250000  0.00000000  0.00000000       0.023
   0.12500000  0.00000000  0.00000000       0.023
   0.18750000  0.00000000  0.00000000       0.023
   0.25000000  0.00000000  0.00000000       0.023
   0.31250000  0.00000000  0.00000000       0.023
   0.37500000  0.00000000  0.00000000       0.023
   0.43750000 -0.00000000  0.00000000       0.023
   0.50000000  0.00000000  0.00000000       0.012
   0.06250000  0.06250000  0.00000000       0.023
   0.12500000  0.06250000  0.00000000       0.047
   0.18750000  0.06250000  0.00000000       0.047
   0.25000000  0.06250000  0.00000000       0.047
   0.31250000  0.06250000  0.00000000       0.047
   0.37500000  0.06250000  0.00000000       0.047
   0.43750000  0.06250000  0.00000000       0.047
   0.12500000  0.12500000  0.00000000       0.023
   0.18750000  0.12500000  0.00000000       0.047
   0.25000000  0.12500000  0.00000000       0.047
   0.31250000  0.12500000  0.00000000       0.047
   0.37500000  0.12500000  0.00000000       0.047
   0.43750000  0.12500000  0.00000000       0.023
   0.18750000  0.18750000  0.00000000       0.023
   0.25000000  0.18750000  0.00000000       0.047
   0.31250000  0.18750000  0.00000000       0.047
   0.37500000  0.18750000  0.00000000       0.047
   0.25000000  0.25000000  0.00000000       0.023
   0.31250000  0.25000000  0.00000000       0.047
   0.37500000  0.25000000  0.00000000       0.023
   0.31250000  0.31250000  0.00000000       0.023

 position of ions in fractional coordinates (direct lattice)
   0.00000000  0.00000000  0.50000000
   0.66666597  0.33333299  0.56260310
   0.33333397  0.66666698  0.43739690

 position of ions in cartesian coordinates  (Angst):
   0.00000000  0.00000000 11.40152168
   1.84999831  1.06809684 12.82906290
   0.00000221  2.13619693  9.97398047

 k-point  1 :   0.0000 0.0000 0.0000  plane waves:    6875
 k-point  2 :   0.0625 0.0000 0.0000  plane waves:    6877
 k-point  3 :   0.1250 0.0000 0.0000  plane waves:    6867
 k-point  4 :   0.1875 0.0000 0.0000  plane waves:    6866
 k-point  5 :   0.2500 0.0000 0.0000  plane waves:    6856
 k-point  6 :   0.3125 0.0000 0.0000  plane waves:    6854
 k-point  7 :   0.3750 0.0000 0.0000  plane waves:    6872
 k-point  8 :   0.4375-0.0000 0.0000  plane waves:    6882
 k-point  9 :   0.5000 0.0000 0.0000  plane waves:    6878
 k-point 10 :   0.0625 0.0625 0.0000  plane waves:    6881
 k-point 11 :   0.1250 0.0625 0.0000  plane waves:    6861
 k-point 12 :   0.1875 0.0625 0.0000  plane waves:    6858
 k-point 13 :   0.2500 0.0625 0.0000  plane waves:    6860
 k-point 14 :   0.3125 0.0625 0.0000  plane waves:    6865
 k-point 15 :   0.3750 0.0625 0.0000  plane waves:    6871
 k-point 16 :   0.4375 0.0625 0.0000  plane waves:    6883
 k-point 17 :   0.1250 0.1250 0.0000  plane waves:    6859
 k-point 18 :   0.1875 0.1250 0.0000  plane waves:    6865
 k-point 19 :   0.2500 0.1250 0.0000  plane waves:    6846
 k-point 20 :   0.3125 0.1250 0.0000  plane waves:    6859
 k-point 21 :   0.3750 0.1250 0.0000  plane waves:    6861
 k-point 22 :   0.4375 0.1250 0.0000  plane waves:    6872
 k-point 23 :   0.1875 0.1875 0.0000  plane waves:    6859
 k-point 24 :   0.2500 0.1875 0.0000  plane waves:    6845
 k-point 25 :   0.3125 0.1875 0.0000  plane waves:    6854
 k-point 26 :   0.3750 0.1875 0.0000  plane waves:    6877
 k-point 27 :   0.2500 0.2500 0.0000  plane waves:    6857
 k-point 28 :   0.3125 0.2500 0.0000  plane waves:    6864
 k-point 29 :   0.3750 0.2500 0.0000  plane waves:    6864
 k-point 30 :   0.3125 0.3125 0.0000  plane waves:    6877

 maximum and minimum number of plane-waves per node :      1161     1121

 maximum number of plane-waves:      6883
 maximum index in each direction:
   IXMAX=    6   IYMAX=    6   IZMAX=   41
   IXMIN=   -7   IYMIN=   -7   IZMIN=  -41

 WARNING: aliasing errors must be expected set NGX to  28 to avoid them
 WARNING: aliasing errors must be expected set NGY to  28 to avoid them
 WARNING: aliasing errors must be expected set NGZ to 166 to avoid them
 aliasing errors are usually negligible using standard VASP settings
 and one can safely disregard these warnings

 parallel 3D FFT for wavefunctions:
    minimum data exchange during FFTs selected (reduces bandwidth)
 parallel 3D FFT for charge:
    minimum data exchange during FFTs selected (reduces bandwidth)

 initial charge density was supplied:
 number of electron      24.0000026 magnetization       2.0000046
 keeping initial charge density in first step

 Maximum index for augmentation-charges          370 (set IRDMAX)

 First call to EWALD:  gamma=   0.274
 Maximum number of real-space cells 5x 5x 1
 Maximum number of reciprocal cells 2x 2x 8

 FEWALD executed in parallel

----------------------------------------- Iteration    1(   1)  ---------------------------------------

atom =   1  type =  1  l = 2

 onsite density matrix

spin component  1

  0.9753 -0.0000 -0.0000  0.0150  0.0000
 -0.0000  0.9850 -0.0000  0.0000  0.0150
 -0.0000 -0.0000  0.9651 -0.0000 -0.0000
  0.0150  0.0000 -0.0000  0.9850  0.0000
  0.0000  0.0150 -0.0000  0.0000  0.9753

[...]

  0.7142  0.0000 -0.0000 -0.3457  0.0000
  0.0000  0.4718  0.0000  0.0000 -0.3457
 -0.0000  0.0000  0.9602  0.0000 -0.0000
 -0.3457  0.0000  0.0000  0.4718 -0.0000
  0.0000 -0.3457 -0.0000 -0.0000  0.7142

 occupancies and eigenvectors

  o =  0.2267  v =  0.0000  0.0000  0.0000  0.0000  0.0000 -0.3559  0.6431 -0.0000 -0.5019  0.4560      0.0000  0.0000  0.0000  0.0000  0.0000  0.0000  0.0000  0.0000  0.0000  0.0000
  o =  0.2267  v =  0.0000  0.0000  0.0000  0.0000  0.0000  0.4560  0.5019  0.0000  0.6431  0.3559      0.0000  0.0000  0.0000  0.0000  0.0000  0.0000  0.0000  0.0000  0.0000  0.0000
  o =  0.9594  v =  0.0000  0.0000  0.0000  0.0000  0.0000 -0.5020 -0.4559 -0.0001  0.3559  0.6430      0.0000  0.0000  0.0000  0.0000  0.0000  0.0000  0.0000  0.0000  0.0000  0.0000
  o =  0.9594  v =  0.0000  0.0000  0.0000  0.0000  0.0000  0.6430 -0.3559  0.0002 -0.4559  0.5020      0.0000  0.0000  0.0000  0.0000  0.0000  0.0000  0.0000  0.0000  0.0000  0.0000
  o =  0.9602  v =  0.0000  0.0000  0.0000  0.0000  0.0000 -0.0002  0.0000  1.0000  0.0001 -0.0000      0.0000  0.0000  0.0000  0.0000  0.0000  0.0000  0.0000  0.0000  0.0000  0.0000
  o =  0.9644  v = -0.4972 -0.4644 -0.0001  0.3625  0.6369  0.0000  0.0000  0.0000  0.0000  0.0000      0.0000  0.0000  0.0000  0.0000  0.0000  0.0000  0.0000  0.0000  0.0000  0.0000
  o =  0.9644  v =  0.6369 -0.3625  0.0002 -0.4644  0.4972  0.0000  0.0000  0.0000  0.0000  0.0000      0.0000  0.0000  0.0000  0.0000  0.0000  0.0000  0.0000  0.0000  0.0000  0.0000
  o =  0.9651  v =  0.0002 -0.0000 -1.0000 -0.0002  0.0001  0.0000  0.0000  0.0000  0.0000  0.0000      0.0000  0.0000  0.0000  0.0000  0.0000  0.0000  0.0000  0.0000  0.0000  0.0000
  o =  0.9959  v =  0.3625 -0.6370 -0.0000  0.4971 -0.4645  0.0000  0.0000  0.0000  0.0000  0.0000      0.0000  0.0000  0.0000  0.0000  0.0000  0.0000  0.0000  0.0000  0.0000  0.0000
  o =  0.9959  v = -0.4645 -0.4971  0.0000 -0.6370 -0.3625  0.0000  0.0000  0.0000  0.0000  0.0000      0.0000  0.0000  0.0000  0.0000  0.0000  0.0000  0.0000  0.0000  0.0000  0.0000
 BZINTS: Fermi energy:  6.055386; 24.000000 electrons
         Band energy: -34.815010;  BLOECHL correction: -0.122168

 eigenvalue-minimisations  :  2400
 total energy-change (2. order) : 0.1706518E+03  (-0.8161053E+03)
 number of electron      24.0000026 magnetization       2.0000046
 augmentation part       24.0000026 magnetization       2.0000046

 Free energy of the ion-electron system (eV)
  alpha Z        PSCENC =        16.10253336
  Ewald energy   TEWEN  =      4275.56302236
  -Hartree energ DENC   =     -5911.00686545
  -exchange      EXHF   =         0.00000000
  -V(xc)+E(xc)   XCENC  =        50.94570646
  PAW double counting   =      1868.63994431    -1909.34378768
  entropy T*S    EENTRO =         0.00000000
  eigenvalues    EBANDS =       -34.81500972
  atomic energy  EATOM  =      1814.56626534
  Solvation  Ediel_sol  =         0.00000000
  free energy    TOTEN  =       170.65180899 eV

  energy without entropy =      170.65180899  energy(sigma->0) =      170.65180899

[...]

 BZINTS: Fermi energy: -2.097621; 24.000000 electrons
         Band energy:-192.017858;  BLOECHL correction: -0.011624

 eigenvalue-minimisations  :  3528
 total energy-change (2. order) :-0.1572028E+03  (-0.1528960E+03)
 number of electron      24.0000026 magnetization       2.0000046
 augmentation part       24.0000026 magnetization       2.0000046

[...]

----------------------------------------- Iteration    1(   8)  ---------------------------------------

[...]

 eigenvalue-minimisations  :  2676
 total energy-change (2. order) :-0.3550031E-07  (-0.3550838E-07)
 number of electron      24.0000026 magnetization       2.0000046
 augmentation part       24.0000026 magnetization       2.0000046

 Free energy of the ion-electron system (eV)
  alpha Z        PSCENC =        16.10253336
  Ewald energy   TEWEN  =      4275.56302236
  -Hartree energ DENC   =     -5911.00686545
  -exchange      EXHF   =         0.00000000
  -V(xc)+E(xc)   XCENC  =        50.94570646
  PAW double counting   =      1868.63994431    -1909.34378768
  entropy T*S    EENTRO =         0.00000000
  eigenvalues    EBANDS =      -213.93664216
  atomic energy  EATOM  =      1814.56626534
  Solvation  Ediel_sol  =         0.00000000
  free energy    TOTEN  =        -8.46982345 eV

  energy without entropy =       -8.46982345  energy(sigma->0) =       -8.46982345

 average (electrostatic) potential at core
  the test charge radii are     0.9791  1.0178
  (the norm of the test charge is              1.0000)
       1 -95.6276       2 -69.0522       3 -69.0522

 E-fermi :  -4.4649     XC(G=0):  -2.8375     alpha+bet : -2.2135

[...]

 k-point     1 :       0.0000    0.0000    0.0000
  band No.  band energies     occupation
      1     -19.0916      1.00000
      2     -18.3766      1.00000
      3      -9.4806      1.00000
      4      -9.4806      1.00000
      5      -8.9818      1.00000
      6      -8.0512      1.00000
      7      -8.0512      1.00000
      8      -7.1919      1.00000
      9      -5.5762      1.00000
     10      -4.9807      1.00000
     11      -4.9807      1.00000
     12      -4.4651      1.00000
     13      -4.4651      1.00000
     14       0.0728      0.00000
     15       1.4359      0.00000
     16       1.9394      0.00000
     17       2.0862      0.00000
     18       2.6391      0.00000
     19       3.1949      0.00000
     20       4.1931      0.00000

[...]

 spin component 2

[...]

 k-point    30 :       0.3125    0.3125    0.0000
  band No.  band energies     occupation
      1     -17.9843      1.00000
      2     -17.9370      1.00000
      3      -8.4174      1.00000
      4      -8.0783      1.00000
      5      -7.9304      1.00000
      6      -6.8013      1.00000
      7      -6.7929      1.00000
      8      -6.3419      1.00000
      9      -6.2529      1.00000
     10      -6.0462      1.00000
     11      -5.9388      1.00000
     12      -2.4747      0.00000
     13      -2.3828      0.00000
     14       1.5811      0.00000
     15       3.7246      0.00000
     16       3.9662      0.00000
     17       5.1369      0.00000
     18       5.4537      0.00000
     19       5.5495      0.00000
     20       5.7174      0.00000

 soft charge-density along one line, spin component           1
         0         1         2         3         4         5         6         7         8         9
 total charge-density along one line

 soft charge-density along one line, spin component           2
         0         1         2         3         4         5         6         7         8         9
 total charge-density along one line

------------------------ aborting loop because EDIFF is reached ----------------------------------------

 total charge

# of ion     s       p       d       tot
  1        0.328   0.325   8.197   8.851
  2        1.614   3.230   0.021   4.865
  3        1.614   3.230   0.021   4.865
tot        3.557   6.784   8.239  18.580

 magnetization (x)

[...]

  FORCE on cell =-STRESS in cart. coord.  units (eV):
  Direction    XX          YY          ZZ          XY          YZ          ZX
  Alpha Z    16.10253    16.10253    16.10253
  Ewald    5251.66956  5251.66900 -6227.77573     0.00046     0.00021     0.00032
  Hartree  5638.75761  5638.75769 -5366.49801    -0.00007    -0.00004    -0.00008
  E(xc)    -107.17460  -107.17462  -107.42944    -0.00002     0.00000    -0.00000
  Local  -11329.14093-11329.14079 11152.10950    -0.00054    -0.00012    -0.00014
  n-local    90.51175    90.89229    90.70819    -0.98573     0.04145    -0.13227
  augment   166.02645   166.02666   166.04969     0.00014    -0.00001    -0.00002
  Kinetic   271.04414   275.01228   276.72785    -5.16258    -0.27456    -0.57090
  Fock        0.00000     0.00000     0.00000     0.00000     0.00000     0.00000
  Total      -0.02922    -0.02922    -0.00541    -0.00000     0.00000    -0.00000
  in kB      -0.17315    -0.17315    -0.03209    -0.00000     0.00000    -0.00000

 VOLUME and BASIS-vectors are now :
  energy-cutoff  :      500.00
  volume of cell :      270.35
      direct lattice vectors                 reciprocal lattice vectors
     3.700000048  0.000000000  0.000000000     0.270270267  0.156040563  0.000000000
    -1.849999359  3.204293869  0.000000000     0.000000000  0.312081239  0.000000000
     0.000000000  0.000000000 22.803043365     0.000000000  0.000000000  0.043853795

  length of vectors
     3.700000048  3.699999571 22.803043365     0.312081199  0.312081239  0.043853795

 FORCES acting on ions
    electron-ion (+dipol)            ewald-force                    non-local-force                 convergence-correction
   -.224E-05 -.123E-05 0.998E-10   -.113E-04 -.626E-05 -.339E-10   0.662E-22 0.000E+00 0.000E+00   0.867E-05 0.479E-05 0.510E-10
   0.119E-02 0.678E-03 -.662E+03   0.116E-03 0.762E-04 0.664E+03   0.694E-17 -.694E-17 -.187E+01   -.925E-05 -.510E-05 0.250E-02
   -.109E-02 -.622E-03 0.662E+03   -.105E-03 -.700E-04 -.664E+03   -.347E-16 0.694E-17 0.187E+01   -.992E-05 -.548E-05 -.250E-02
   0.995E-04 0.549E-04 0.601E-09   -.151E-13 -.531E-14 0.000E+00   -.278E-16 0.000E+00 0.000E+00   -.105E-04 -.579E-05 0.915E-10

 POSITION                                       TOTAL-FORCE (eV/Angst)
      0.00000      0.00000     11.40152        -0.000000     -0.000000     -0.000000
      1.85000      1.06810     12.82906         0.000000     -0.000000     -0.000447
      0.00000      2.13620      9.97398        -0.000000      0.000000      0.000447
    total drift:                                0.000089      0.000049      0.000000

  FREE ENERGIE OF THE ION-ELECTRON SYSTEM (eV)
  free  energy   TOTEN  =        -8.46982345 eV

  energy  without entropy=       -8.46982345  energy(sigma->0) =       -8.46982345

 total charge

[...]

 magnetization (x)

# of ion     s       p       d       tot
  1        0.002   0.000   1.554   1.556
  2        0.011   0.159   0.001   0.171
  3        0.011   0.159   0.001   0.171
tot        0.023   0.319   1.555   1.897

 BZINTS: Fermi energy: -4.464948; 24.000000 electrons
         Band energy:-213.936642;  BLOECHL correction:  0.000000