 vasp.5.4.1 24Jun15 (build May 03 2017 13:41:37) complex

 executed on           IFC91_ompi date 2020.11.04  20:02:28

 INCAR:
 POTCAR:    PAW_PBE Ni 02Aug2007
 POTCAR:    PAW_PBE Br 06Sep2000
 POTCAR:    PAW_PBE Ni 02Aug2007
   VRHFIN =Ni:

   TITEL  = PAW_PBE Ni 02Aug2007
   POMASS =   58.690; ZVAL   =   10.000    mass and valenz
   ENMAX  =  269.532; ENMIN  =  202.149 eV

 POTCAR:    PAW_PBE Br 06Sep2000
   VRHFIN =Br: s2p5

   TITEL  = PAW_PBE Br 06Sep2000
   POMASS =   79.904; ZVAL   =    7.000    mass and valenz
   ENMAX  =  216.285; ENMIN  =  162.214 eV

  PAW_PBE Ni 02Aug2007                  :
  PAW_PBE Br 06Sep2000                  :

 POSCAR: NiBr2
  positions in direct lattice
  velocities in cartesian coordinates
 exchange correlation table for  LEXCH =        8
   RHO(1)=    0.500       N(1)  =     2000
   RHO(2)=  100.500       N(2)  =     4000

 ion  position               nearest neighbor table
   1  0.000  0.000  0.500-   2 2.57   3 2.57   3 2.57   2 2.57   3 2.57   2 2.57
   2  0.667  0.333  0.563-   1 2.57   1 2.57   1 2.57
   3  0.333  0.667  0.437-   1 2.57   1 2.57   1 2.57

  LATTYP: Found a hexagonal cell.
 ALAT       =     3.7000002360
 C/A-ratio  =     6.1629843003

  Lattice vectors:

 A1 = (   3.7000000477,   0.0000000000,   0.0000000000)
 A2 = (  -1.8499993587,   3.2042938687,   0.0000000000)
 A3 = (   0.0000000000,   0.0000000000,  22.8030433655)

Analysis of symmetry for initial positions (statically):
 Subroutine PRICEL returns:
 Original cell was already a primitive cell.

 Routine SETGRP: Setting up the symmetry group for a
 hexagonal supercell.

 Subroutine GETGRP returns: Found 12 space group operations
 (whereof 12 operations were pure point group operations)
 out of a pool of 24 trial point group operations.

The static configuration has the point symmetry D_3d.

Analysis of symmetry for dynamics (positions and initial velocities):
 Subroutine PRICEL returns:
 Original cell was already a primitive cell.

[...]

The dynamic configuration has the point symmetry D_3d.

Analysis of structural, dynamic, and magnetic symmetry:
 Subroutine PRICEL returns:
 Original cell was already a primitive cell.

 Routine SETGRP: Setting up the symmetry group for a
 hexagonal supercell.

 Subroutine GETGRP returns: Found 12 space group operations
 (whereof 12 operations were pure point group operations)
 out of a pool of 24 trial point group operations.

The magnetic configuration has the point symmetry D_3d.

 Subroutine INISYM returns: Found 12 space group operations
 (whereof 12 operations are pure point group operations),
 and found     1 'primitive' translations

 KPOINTS: Hexagonal M-K-G-M
  interpolating k-points between supplied coordinates
  k-points in reciprocal lattice
Space group operators:
 irot       det(A)        alpha          n_x          n_y          n_z        tau_x        tau_y        tau_z
    1     1.000000     0.000000     1.000000     0.000000     0.000000     0.000000     0.000000     0.000000
    2    -1.000000     0.000000     1.000000     0.000000     0.000000     0.000000     0.000000     0.000000
    3     1.000000   120.000000     0.000000     0.000000    -1.000000     0.000000     0.000000     0.000000
    4    -1.000000   120.000000     0.000000     0.000000    -1.000000     0.000000     0.000000     0.000000
    5     1.000000   120.000000     0.000000     0.000000     1.000000     0.000000     0.000000     0.000000
    6    -1.000000   120.000000     0.000000     0.000000     1.000000     0.000000     0.000000     0.000000
    7     1.000000   180.000000     1.000000    -0.000000     0.000000     0.000000     0.000000     0.000000
    8    -1.000000   180.000000     1.000000    -0.000000     0.000000     0.000000     0.000000     0.000000
    9     1.000000   180.000000     0.500000    -0.866025     0.000000     0.000000     0.000000     0.000000
   10    -1.000000   180.000000     0.500000    -0.866025     0.000000     0.000000     0.000000     0.000000
   11     1.000000   180.000000    -0.500000    -0.866025     0.000000     0.000000     0.000000     0.000000
   12    -1.000000   180.000000    -0.500000    -0.866025     0.000000     0.000000     0.000000     0.000000

 I would recommend the setting:
   dimension x,y,z NGX =    20 NGY =   20 NGZ =  125
 SYSTEM =  unknown system
 POSCAR =  NiBr2

 Startparameter for this run:
   NWRITE =      2    write-flag & timer
   PREC   = normal    normal or accurate (medium, high low for compatibility)
   ISTART =      0    job   : 0-new  1-cont  2-samecut
   ICHARG =     11    charge: 1-file 2-atom 10-const
   ISPIN  =      2    spin polarized calculation?
   LNONCOLLINEAR =      F non collinear calculations
   LSORBIT =      F    spin-orbit coupling
   INIWAV =      1    electr: 0-lowe 1-rand  2-diag
   LASPH  =      F    aspherical Exc in radial PAW
   METAGGA=      F    non-selfconsistent MetaGGA calc.

 Electronic Relaxation 1
   ENCUT  =  500.0 eV  36.75 Ry    6.06 a.u.   6.75  6.75 41.58*2*pi/ulx,y,z
   ENINI  =  500.0     initial cutoff
   ENAUG  =  544.6 eV  augmentation charge cutoff
   NELM   =    300;   NELMIN=  2; NELMDL= -5     # of ELM steps
   EDIFF  = 0.1E-05   stopping-criterion for ELM
   LREAL  =      F    real-space projection
   NLSPLINE    = F    spline interpolate recip. space projectors
   LCOMPAT=      F    compatible to vasp.4.4
   GGA_COMPAT  = T    GGA compatible to vasp.4.4-vasp.4.6
   LMAXPAW     = -100 max onsite density
   LMAXMIX     =    4 max onsite mixed and CHGCAR
   VOSKOWN=      0    Vosko Wilk Nusair interpolation
   ROPT   =    0.00000   0.00000
 Ionic relaxation
   EDIFFG = 0.1E-04   stopping-criterion for IOM
   NSW    =      0    number of steps for IOM
   NBLOCK =      1;   KBLOCK =      1    inner block; outer block
   IBRION =     -1    ionic relax: 0-MD 1-quasi-New 2-CG
   NFREE  =      0    steps in history (QN), initial steepest desc. (CG)
   ISIF   =      2    stress and relaxation
   IWAVPR =     10    prediction:  0-non 1-charg 2-wave 3-comb
   ISYM   =      2    0-nonsym 1-usesym 2-fastsym
   LCORR  =      T    Harris-Foulkes like correction to forces

   POTIM  = 0.5000    time-step for ionic-motion
   TEIN   =    0.0    initial temperature
   TEBEG  =    0.0;   TEEND  =   0.0 temperature during run
   SMASS  =  -3.00    Nose mass-parameter (am)
   estimated Nose-frequenzy (Omega)   =  0.10E-29 period in steps =****** mass=  -0.313E-27a.u.
   SCALEE = 1.0000    scale energy and forces
   NPACO  =    256;   APACO  = 16.0  distance and # of slots for P.C.
   PSTRESS=    0.0 pullay stress

  Mass of Ions in am
   POMASS =  58.69 79.90
  Ionic Valenz
   ZVAL   =  10.00  7.00
  Atomic Wigner-Seitz radii
  virtual crystal weights
   VCA    =   1.00  1.00
   NELECT =      24.0000    total number of electrons
   NUPDOWN=      -1.0000    fix difference up-down

 DOS related values:
   EMIN   =  10.00;   EMAX   =-10.00  energy-range for DOS
   EFERMI =   0.00
   ISMEAR =     0;   SIGMA  =   0.05  broadening in eV -4-tet -1-fermi 0-gaus

 Electronic relaxation 2 (details)
   IALGO  =     38    algorithm
   LDIAG  =      T    sub-space diagonalisation (order eigenvalues)
   LSUBROT=      F    optimize rotation matrix (better conditioning)
   TURBO    =      0    0=normal 1=particle mesh
   IRESTART =      0    0=no restart 2=restart with 2 vectors
   NREBOOT  =      0    no. of reboots
   NMIN     =      0    reboot dimension
   EREF     =   0.00    reference energy to select bands
   IMIX   =      4    mixing-type and parameters
     AMIX     =   0.40;   BMIX     =  1.00
     AMIX_MAG =   1.60;   BMIX_MAG =  1.00
     AMIN     =   0.10
     WC   =   100.;   INIMIX=   1;  MIXPRE=   1;  MAXMIX= -45

 Intra band minimization:
   WEIMIN = 0.0000     energy-eigenvalue tresh-hold
   EBREAK =  0.12E-07  absolut break condition
   DEPER  =   0.30     relativ break condition

   TIME   =   0.40     timestep for ELM

  volume/ion in A,a.u.               =      90.12       608.14
  Fermi-wavevector in a.u.,A,eV,Ry     =   0.730303  1.380072  7.256560  0.533342
  Thomas-Fermi vector in A             =   1.822239

 Write flags
   LWAVE  =      F    write WAVECAR
   LCHARG =      F    write CHGCAR
   LVTOT  =      F    write LOCPOT, total local potential
   LVHAR  =      F    write LOCPOT, Hartree potential only
   LELF   =      F    write electronic localiz. function (ELF)
   LORBIT =     11    0 simple, 1 ext, 2 COOP (PROOUT)

 Dipole corrections
   LMONO  =      F    monopole corrections only (constant potential shift)
   LDIPOL =      F    correct potential (dipole corrections)
   IDIPOL =      0    1-x, 2-y, 3-z, 4-all directions
   EPSILON=  1.0000000 bulk dielectric constant

 LDA+U is selected, type is set to LDAUTYPE =  2
   angular momentum for each species LDAUL =     2   -1
   U (eV)           for each species LDAUU =   4.0  0.0
   J (eV)           for each species LDAUJ =   0.0  0.0
 Exchange correlation treatment:
   GGA     =    --    GGA type
   VOSKOWN=      0    Vosko Wilk Nusair interpolation
   LHFCALC =     F    Hartree Fock is set to
   LHFONE  =     F    Hartree Fock one center treatment
   AEXX    =    0.0000 exact exchange contribution

 Linear response parameters
   LEPSILON=     F    determine dielectric tensor
   LRPA    =     F    only Hartree local field effects (RPA)
   LNABLA  =     F    use nabla operator in PAW spheres
   LVEL    =     F    velocity operator in full k-point grid
   LINTERFAST=   F  fast interpolation
   KINTER  =     0    interpolate to denser k-point grid
   CSHIFT  =0.1000    complex shift for real part using Kramers Kronig
   OMEGAMAX=  -1.0    maximum frequency
   DEG_THRESHOLD= 0.2000000E-02 threshold for treating states as degnerate
   RTIME   =    0.100 relaxation time in fs

 Orbital magnetization related:
   ORBITALMAG=     F  switch on orbital magnetization
   LCHIMAG   =     F  perturbation theory with respect to B field
   DQ        =  0.001000  dq finite difference perturbation B field

 Static calculation
 charge density and potential remain constant during run
 spin polarized calculation
 Variant of blocked Davidson
 Davidson routine will perform the subspace rotation
 perform sub-space diagonalisation
    after iterative eigenvector-optimisation
 no mixing
 using additional bands            8
 reciprocal scheme for non local part
 use partial core corrections
 calculate Harris-corrections to forces
   (improved forces if not selfconsistent)
 use gradient corrections
 WARNING: stress and forces are not correct
  (second derivative of E(xc) not defined)
 use of overlap-Matrix (Vanderbilt PP)
 Gauss-broadening in eV      SIGMA  =   0.05

  energy-cutoff  :      500.00
  volume of cell :      270.35
      direct lattice vectors                 reciprocal lattice vectors
     3.700000048  0.000000000  0.000000000     0.270270267  0.156040563  0.000000000
    -1.849999359  3.204293869  0.000000000     0.000000000  0.312081239  0.000000000
     0.000000000  0.000000000 22.803043365     0.000000000  0.000000000  0.043853795

  length of vectors
     3.700000048  3.699999571 22.803043365     0.312081199  0.312081239  0.043853795

 k-points in units of 2pi/SCALE and weight: Hexagonal M-K-G-M
[...]
   0.20689655  0.00000000  0.00000000       0.011
   0.18965517  0.00000000  0.00000000       0.011
   0.17241379  0.00000000  0.00000000       0.011
   0.15517241  0.00000000  0.00000000       0.011
   0.13793103  0.00000000  0.00000000       0.011
   0.12068966  0.00000000  0.00000000       0.011
   0.10344828  0.00000000  0.00000000       0.011
   0.08620690  0.00000000  0.00000000       0.011
   0.06896552  0.00000000  0.00000000       0.011
   0.05172414  0.00000000  0.00000000       0.011
   0.03448276  0.00000000  0.00000000       0.011
   0.01724138  0.00000000  0.00000000       0.011
   0.00000000  0.00000000  0.00000000       0.011

 position of ions in fractional coordinates (direct lattice)
   0.00000000  0.00000000  0.50000000
   0.66666597  0.33333299  0.56260310
   0.33333397  0.66666698  0.43739690

 position of ions in cartesian coordinates  (Angst):
   0.00000000  0.00000000 11.40152168
   1.84999831  1.06809684 12.82906290
   0.00000221  2.13619693  9.97398047

 k-point  1 :   0.0000 0.0000 0.0000  plane waves:    6875
 k-point  2 :   0.0115 0.0115 0.0000  plane waves:    6869
 k-point  3 :   0.0230 0.0230 0.0000  plane waves:    6877
 k-point  4 :   0.0345 0.0345 0.0000  plane waves:    6873
 k-point  5 :   0.0460 0.0460 0.0000  plane waves:    6881
 k-point  6 :   0.0575 0.0575 0.0000  plane waves:    6879
 k-point  7 :   0.0690 0.0690 0.0000  plane waves:    6869
 k-point  8 :   0.0805 0.0805 0.0000  plane waves:    6869
 k-point  9 :   0.0920 0.0920 0.0000  plane waves:    6875
 k-point 10 :   0.1034 0.1034 0.0000  plane waves:    6859
 k-point 11 :   0.1149 0.1149 0.0000  plane waves:    6871
 k-point 12 :   0.1264 0.1264 0.0000  plane waves:    6859
 k-point 13 :   0.1379 0.1379 0.0000  plane waves:    6855
 k-point 14 :   0.1494 0.1494 0.0000  plane waves:    6877
 k-point 15 :   0.1609 0.1609 0.0000  plane waves:    6867
 k-point 16 :   0.1724 0.1724 0.0000  plane waves:    6855
 k-point 17 :   0.1839 0.1839 0.0000  plane waves:    6855
 k-point 18 :   0.1954 0.1954 0.0000  plane waves:    6865
 k-point 19 :   0.2069 0.2069 0.0000  plane waves:    6865
 k-point 20 :   0.2184 0.2184 0.0000  plane waves:    6849
 k-point 21 :   0.2299 0.2299 0.0000  plane waves:    6851
 k-point 22 :   0.2414 0.2414 0.0000  plane waves:    6849
 k-point 23 :   0.2529 0.2529 0.0000  plane waves:    6855
 k-point 24 :   0.2644 0.2644 0.0000  plane waves:    6853
 k-point 25 :   0.2759 0.2759 0.0000  plane waves:    6867
 k-point 26 :   0.2874 0.2874 0.0000  plane waves:    6871
 k-point 27 :   0.2989 0.2989 0.0000  plane waves:    6845
 k-point 28 :   0.3103 0.3103 0.0000  plane waves:    6877
 k-point 29 :   0.3218 0.3218 0.0000  plane waves:    6871
 k-point 30 :   0.3333 0.3333 0.0000  plane waves:    6867
 k-point 31 :   0.3333 0.3333 0.0000  plane waves:    6867
 k-point 32 :   0.3391 0.3218 0.0000  plane waves:    6867
 k-point 33 :   0.3448 0.3103 0.0000  plane waves:    6871
 k-point 34 :   0.3506 0.2989 0.0000  plane waves:    6863
 k-point 35 :   0.3563 0.2874 0.0000  plane waves:    6867
 k-point 36 :   0.3621 0.2759 0.0000  plane waves:    6861
 k-point 37 :   0.3678 0.2644 0.0000  plane waves:    6885
 k-point 38 :   0.3736 0.2529 0.0000  plane waves:    6860
 k-point 39 :   0.3793 0.2414 0.0000  plane waves:    6860
 k-point 40 :   0.3851 0.2299 0.0000  plane waves:    6872
 k-point 41 :   0.3908 0.2184 0.0000  plane waves:    6876
 k-point 42 :   0.3966 0.2069 0.0000  plane waves:    6872
 k-point 43 :   0.4023 0.1954 0.0000  plane waves:    6872
 k-point 44 :   0.4080 0.1839 0.0000  plane waves:    6876
 k-point 45 :   0.4138 0.1724 0.0000  plane waves:    6880
 k-point 46 :   0.4195 0.1609 0.0000  plane waves:    6874
 k-point 47 :   0.4253 0.1494 0.0000  plane waves:    6870
 k-point 48 :   0.4310 0.1379 0.0000  plane waves:    6870
 k-point 49 :   0.4368 0.1264 0.0000  plane waves:    6872
 k-point 50 :   0.4425 0.1149 0.0000  plane waves:    6886
 k-point 51 :   0.4483 0.1034 0.0000  plane waves:    6878
 k-point 52 :   0.4540 0.0920 0.0000  plane waves:    6872
 k-point 53 :   0.4598 0.0805 0.0000  plane waves:    6874
 k-point 54 :   0.4655 0.0690 0.0000  plane waves:    6876
 k-point 55 :   0.4713 0.0575 0.0000  plane waves:    6888
 k-point 56 :   0.4770 0.0460 0.0000  plane waves:    6904
 k-point 57 :   0.4828 0.0345 0.0000  plane waves:    6904
 k-point 58 :   0.4885 0.0230 0.0000  plane waves:    6892
 k-point 59 :   0.4943 0.0115 0.0000  plane waves:    6886
 k-point 60 :   0.5000 0.0000 0.0000  plane waves:    6878
[...]
 k-point 76 :   0.2414 0.0000 0.0000  plane waves:    6864
 k-point 77 :   0.2241 0.0000 0.0000  plane waves:    6864
 k-point 78 :   0.2069 0.0000 0.0000  plane waves:    6862
 k-point 79 :   0.1897 0.0000 0.0000  plane waves:    6870
 k-point 80 :   0.1724 0.0000 0.0000  plane waves:    6860
 k-point 81 :   0.1552 0.0000 0.0000  plane waves:    6863
 k-point 82 :   0.1379 0.0000 0.0000  plane waves:    6857
 k-point 83 :   0.1207 0.0000 0.0000  plane waves:    6869
 k-point 84 :   0.1034 0.0000 0.0000  plane waves:    6871
 k-point 85 :   0.0862 0.0000 0.0000  plane waves:    6883
 k-point 86 :   0.0690 0.0000 0.0000  plane waves:    6881
 k-point 87 :   0.0517 0.0000 0.0000  plane waves:    6873
 k-point 88 :   0.0345 0.0000 0.0000  plane waves:    6879
 k-point 89 :   0.0172 0.0000 0.0000  plane waves:    6871
 k-point 90 :   0.0000 0.0000 0.0000  plane waves:    6875

 maximum and minimum number of plane-waves per node :      1169     1115

 maximum number of plane-waves:      6904
 maximum index in each direction:
   IXMAX=    6   IYMAX=    6   IZMAX=   41
   IXMIN=   -7   IYMIN=   -7   IZMIN=  -41

 WARNING: aliasing errors must be expected set NGX to  28 to avoid them
 WARNING: aliasing errors must be expected set NGY to  28 to avoid them
 WARNING: aliasing errors must be expected set NGZ to 166 to avoid them
 aliasing errors are usually negligible using standard VASP settings
 and one can safely disregard these warnings

 parallel 3D FFT for wavefunctions:
    minimum data exchange during FFTs selected (reduces bandwidth)
 parallel 3D FFT for charge:
    minimum data exchange during FFTs selected (reduces bandwidth)

 initial charge density was supplied:
 number of electron      24.0000026 magnetization       2.0000046
 keeping initial charge density in first step

 Maximum index for augmentation-charges          370 (set IRDMAX)

 First call to EWALD:  gamma=   0.274
 Maximum number of real-space cells 5x 5x 1
 Maximum number of reciprocal cells 2x 2x 8

 FEWALD executed in parallel

----------------------------------------- Iteration    1(   1)  ---------------------------------------

atom =   1  type =  1  l = 2

 onsite density matrix

spin component  1

  0.9753 -0.0000 -0.0000  0.0150  0.0000
 -0.0000  0.9850 -0.0000  0.0000  0.0150
 -0.0000 -0.0000  0.9651 -0.0000 -0.0000
  0.0150  0.0000 -0.0000  0.9850  0.0000
  0.0000  0.0150 -0.0000  0.0000  0.9753

[...]

  0.7142  0.0000 -0.0000 -0.3457  0.0000
  0.0000  0.4718  0.0000  0.0000 -0.3457
 -0.0000  0.0000  0.9602  0.0000 -0.0000
 -0.3457  0.0000  0.0000  0.4718 -0.0000
  0.0000 -0.3457 -0.0000 -0.0000  0.7142

 occupancies and eigenvectors

  o =  0.2267  v =  0.0000  0.0000  0.0000  0.0000  0.0000 -0.3559  0.6431 -0.0000 -0.5019  0.4560      0.0000  0.0000  0.0000  0.0000  0.0000  0.0000  0.0000  0.0000  0.0000  0.0000
  o =  0.2267  v =  0.0000  0.0000  0.0000  0.0000  0.0000  0.4560  0.5019  0.0000  0.6431  0.3559      0.0000  0.0000  0.0000  0.0000  0.0000  0.0000  0.0000  0.0000  0.0000  0.0000
  o =  0.9594  v =  0.0000  0.0000  0.0000  0.0000  0.0000 -0.5020 -0.4559 -0.0001  0.3559  0.6430      0.0000  0.0000  0.0000  0.0000  0.0000  0.0000  0.0000  0.0000  0.0000  0.0000
  o =  0.9594  v =  0.0000  0.0000  0.0000  0.0000  0.0000  0.6430 -0.3559  0.0002 -0.4559  0.5020      0.0000  0.0000  0.0000  0.0000  0.0000  0.0000  0.0000  0.0000  0.0000  0.0000
  o =  0.9602  v =  0.0000  0.0000  0.0000  0.0000  0.0000 -0.0002  0.0000  1.0000  0.0001 -0.0000      0.0000  0.0000  0.0000  0.0000  0.0000  0.0000  0.0000  0.0000  0.0000  0.0000
  o =  0.9644  v = -0.4972 -0.4644 -0.0001  0.3625  0.6369  0.0000  0.0000  0.0000  0.0000  0.0000      0.0000  0.0000  0.0000  0.0000  0.0000  0.0000  0.0000  0.0000  0.0000  0.0000
  o =  0.9644  v =  0.6369 -0.3625  0.0002 -0.4644  0.4972  0.0000  0.0000  0.0000  0.0000  0.0000      0.0000  0.0000  0.0000  0.0000  0.0000  0.0000  0.0000  0.0000  0.0000  0.0000
  o =  0.9651  v =  0.0002 -0.0000 -1.0000 -0.0002  0.0001  0.0000  0.0000  0.0000  0.0000  0.0000      0.0000  0.0000  0.0000  0.0000  0.0000  0.0000  0.0000  0.0000  0.0000  0.0000
  o =  0.9959  v =  0.3625 -0.6370 -0.0000  0.4971 -0.4645  0.0000  0.0000  0.0000  0.0000  0.0000      0.0000  0.0000  0.0000  0.0000  0.0000  0.0000  0.0000  0.0000  0.0000  0.0000
  o =  0.9959  v = -0.4645 -0.4971  0.0000 -0.6370 -0.3625  0.0000  0.0000  0.0000  0.0000  0.0000      0.0000  0.0000  0.0000  0.0000  0.0000  0.0000  0.0000  0.0000  0.0000  0.0000

 eigenvalue-minimisations  :  7200
 total energy-change (2. order) : 0.1694802E+03  (-0.8229743E+03)
 number of electron      24.0000026 magnetization       2.0000046
 augmentation part       24.0000026 magnetization       2.0000046

 Free energy of the ion-electron system (eV)
  alpha Z        PSCENC =        16.10253336
  Ewald energy   TEWEN  =      4275.56302236
  -Hartree energ DENC   =     -5911.00686545
  -exchange      EXHF   =         0.00000000
  -V(xc)+E(xc)   XCENC  =        50.94570646
  PAW double counting   =      1868.63994431    -1909.34378768
  entropy T*S    EENTRO =        -0.00171119
  eigenvalues    EBANDS =       -35.98486001
  atomic energy  EATOM  =      1814.56626534
  Solvation  Ediel_sol  =         0.00000000
  free energy    TOTEN  =       169.48024751 eV

  energy without entropy =      169.48195870  energy(sigma->0) =      169.48110310

[...]

 eigenvalue-minimisations  : 10256
 total energy-change (2. order) :-0.1553505E+03  (-0.1503918E+03)
 number of electron      24.0000026 magnetization       2.0000046
 augmentation part       24.0000026 magnetization       2.0000046

[...]

----------------------------------------- Iteration    1(   8)  ---------------------------------------

 eigenvalue-minimisations  :  7872
 total energy-change (2. order) :-0.2815932E-07  (-0.2815738E-07)
 number of electron      24.0000026 magnetization       2.0000046
 augmentation part       24.0000026 magnetization       2.0000046

 Free energy of the ion-electron system (eV)
  alpha Z        PSCENC =        16.10253336
  Ewald energy   TEWEN  =      4275.56302236
  -Hartree energ DENC   =     -5911.00686545
  -exchange      EXHF   =         0.00000000
  -V(xc)+E(xc)   XCENC  =        50.94570646
  PAW double counting   =      1868.63994431    -1909.34378768
  entropy T*S    EENTRO =        -0.00000000
  eigenvalues    EBANDS =      -213.54078333
  atomic energy  EATOM  =      1814.56626534
  Solvation  Ediel_sol  =         0.00000000
  free energy    TOTEN  =        -8.07396462 eV

  energy without entropy =       -8.07396462  energy(sigma->0) =       -8.07396462

 average (electrostatic) potential at core
  the test charge radii are     0.9791  1.0178
  (the norm of the test charge is              1.0000)
       1 -95.6276       2 -69.0522       3 -69.0522

 E-fermi :  -4.2323     XC(G=0):  -2.8375     alpha+bet : -2.2135

[...]

 k-point     1 :       0.0000    0.0000    0.0000
  band No.  band energies     occupation
      1     -19.0916      1.00000
      2     -18.3766      1.00000
      3      -9.4806      1.00000
      4      -9.4806      1.00000
      5      -8.9818      1.00000
      6      -8.0512      1.00000
      7      -8.0512      1.00000
      8      -7.1919      1.00000
      9      -5.5762      1.00000
     10      -4.9807      1.00000
     11      -4.9807      1.00000
     12      -4.4651      1.00000
     13      -4.4651      1.00000
     14       0.0728      0.00000
     15       1.4359      0.00000
     16       1.9394      0.00000
     17       2.0862      0.00000
     18       2.6391      0.00000
     19       3.1949      0.00000
     20       4.1931      0.00000

[...]

 spin component 2

[...]

 k-point    90 :       0.0000    0.0000    0.0000
  band No.  band energies     occupation
      1     -18.9146      1.00000
      2     -18.1884      1.00000
      3      -8.5756      1.00000
      4      -7.1766      1.00000
      5      -7.1765      1.00000
      6      -6.4000      1.00000
      7      -5.7995      1.00000
      8      -5.7995      1.00000
      9      -5.3979      1.00000
     10      -4.7850      1.00000
     11      -4.7850      1.00000
     12      -2.1955      0.00000
     13      -2.1955      0.00000
     14       0.2434      0.00000
     15       1.5161      0.00000
     16       1.9916      0.00000
     17       2.1417      0.00000
     18       2.7014      0.00000
     19       3.2183      0.00000
     20       4.2399      0.00000

 soft charge-density along one line, spin component           1
         0         1         2         3         4         5         6         7         8         9
 total charge-density along one line

 soft charge-density along one line, spin component           2
         0         1         2         3         4         5         6         7         8         9
 total charge-density along one line

------------------------ aborting loop because EDIFF is reached ----------------------------------------

 total charge

# of ion     s       p       d       tot
  1        0.325   0.316   8.209   8.850
  2        1.610   3.249   0.021   4.880
  3        1.610   3.249   0.021   4.880
tot        3.545   6.814   8.250  18.609

 magnetization (x)

[...]

  FORCE on cell =-STRESS in cart. coord.  units (eV):
  Direction    XX          YY          ZZ          XY          YZ          ZX
  Alpha Z    16.10253    16.10253    16.10253
  Ewald    5251.66956  5251.66900 -6227.77573     0.00046     0.00021     0.00032
  Hartree  5639.14409  5639.14417 -5366.00966    -0.00007    -0.00004    -0.00008
  E(xc)    -107.19415  -107.19417  -107.42845    -0.00002     0.00000    -0.00000
  Local  -11329.67996-11329.67983 11152.00080    -0.00054    -0.00012    -0.00014
  n-local    90.64004    91.06177    90.48300    -0.75271    -0.00805    -0.08337
  augment   166.15390   166.15411   166.44662     0.00014    -0.00001    -0.00002
  Kinetic   272.85190   276.16681   276.94810    -4.22855    -0.19893    -0.46088
  Fock        0.00000     0.00000     0.00000     0.00000     0.00000     0.00000
  Total       1.55616     1.55616     0.76721     0.00000     0.00000     0.00000
  in kB       9.22225     9.22225     4.54673     0.00000     0.00000     0.00000

 VOLUME and BASIS-vectors are now :
  energy-cutoff  :      500.00
  volume of cell :      270.35
      direct lattice vectors                 reciprocal lattice vectors
     3.700000048  0.000000000  0.000000000     0.270270267  0.156040563  0.000000000
    -1.849999359  3.204293869  0.000000000     0.000000000  0.312081239  0.000000000
     0.000000000  0.000000000 22.803043365     0.000000000  0.000000000  0.043853795

  length of vectors
     3.700000048  3.699999571 22.803043365     0.312081199  0.312081239  0.043853795

 FORCES acting on ions
    electron-ion (+dipol)            ewald-force                    non-local-force                 convergence-correction
   -.224E-05 -.123E-05 0.104E-09   -.113E-04 -.626E-05 -.339E-10   0.331E-23 0.000E+00 0.000E+00   0.867E-05 0.479E-05 0.511E-10
   0.120E-02 0.681E-03 -.662E+03   0.116E-03 0.762E-04 0.664E+03   -.694E-17 0.694E-17 -.187E+01   -.103E-04 -.568E-05 -.264E-01
   -.110E-02 -.624E-03 0.662E+03   -.105E-03 -.700E-04 -.664E+03   0.347E-17 -.694E-17 0.187E+01   -.899E-05 -.495E-05 0.264E-01
   0.998E-04 0.551E-04 0.629E-09   -.151E-13 -.531E-14 0.000E+00   -.347E-17 0.000E+00 0.000E+00   -.106E-04 -.584E-05 0.916E-10

 POSITION                                       TOTAL-FORCE (eV/Angst)
      0.00000      0.00000     11.40152         0.000000      0.000000     -0.000000
      1.85000      1.06810     12.82906        -0.000000      0.000000      0.001565
      0.00000      2.13620      9.97398         0.000000     -0.000000     -0.001565
    total drift:                                0.000089      0.000049      0.000000

  FREE ENERGIE OF THE ION-ELECTRON SYSTEM (eV)
  free  energy   TOTEN  =        -8.07396462 eV

  energy  without entropy=       -8.07396462  energy(sigma->0) =       -8.07396462

 total charge

[...]

 magnetization (x)

# of ion     s       p       d       tot
  1        0.002   0.000   1.542   1.544
  2        0.010   0.167   0.001   0.177
  3        0.010   0.167   0.001   0.177
tot        0.022   0.334   1.543   1.898